(set-logic QF_S)
(declare-fun var0 () String)
(declare-fun var1 () String)
(declare-fun var2 () Int)
(declare-fun var3 () Int)
(declare-fun var4 () String)
(declare-fun var5 () String)
(declare-fun var6 () Int)
(declare-fun var7 () Int)
(assert (>= (str.to.int var0) (str.indexof (str.substr var1 var2 var3) (str.replace var4 var5 var5) (str.len var1))))
(assert (>= var6 var7))
(assert (< var2 var3))
(assert (>= var6 107))
(check-sat)